! marginal_lossless
! Lossless line with sigma_max = 1 - 1e-12. Sits on the passivity boundary; a checker with a too-tight tolerance false-alarms here.
# HZ S RI R 50
1000000000 0 0 0.995561964602 -0.0941083133184 0.995561964602 -0.0941083133184 0 0
1619047619.05 0 0 0.988380467457 -0.152000169561 0.988380467457 -0.152000169561 0 0
2238095238.1 0 0 0.977835471137 -0.209374763007 0.977835471137 -0.209374763007 0 0
2857142857.14 0 0 0.963962860695 -0.266036845566 0.963962860695 -0.266036845566 0 0
3476190476.19 0 0 0.946809845192 -0.321793593854 0.946809845192 -0.321793593854 0 0
4095238095.24 0 0 0.926434797042 -0.376455265374 0.926434797042 -0.376455265374 0 0
4714285714.29 0 0 0.902907053367 -0.429835844221 0.902907053367 -0.429835844221 0 0
5333333333.33 0 0 0.876306680043 -0.481753674101 0.876306680043 -0.481753674101 0 0
5952380952.38 0 0 0.846724199227 -0.532032076515 0.846724199227 -0.532032076515 0 0
6571428571.43 0 0 0.814260281314 -0.580499952001 0.814260281314 -0.580499952001 0 0
7190476190.48 0 0 0.779025402342 -0.626992362396 0.779025402342 -0.626992362396 0 0
7809523809.52 0 0 0.741139468049 -0.671351092125 0.741139468049 -0.671351092125 0 0
8428571428.57 0 0 0.700731405818 -0.713425186616 0.700731405818 -0.713425186616 0 0
9047619047.62 0 0 0.657938725939 -0.753071466003 0.657938725939 -0.753071466003 0 0
9666666666.67 0 0 0.612907053652 -0.790155012375 0.612907053652 -0.790155012375 0 0
10285714285.7 0 0 0.565789633582 -0.824549628906 0.565789633582 -0.824549628906 0 0
10904761904.8 0 0 0.516746808235 -0.85613826931 0.516746808235 -0.85613826931 0 0
11523809523.8 0 0 0.465945472355 -0.884813436149 0.465945472355 -0.884813436149 0 0
12142857142.9 0 0 0.413558504966 -0.910477546658 0.413558504966 -0.910477546658 0 0
12761904761.9 0 0 0.359764181061 -0.933043264819 0.359764181061 -0.933043264819 0 0
13380952381 0 0 0.304745564927 -0.952433798568 0.304745564927 -0.952433798568 0 0
14000000000 0 0 0.248689887165 -0.968583161128 0.248689887165 -0.968583161128 0 0
14619047619 0 0 0.19178790754 -0.981436395555 0.19178790754 -0.981436395555 0 0
15238095238.1 0 0 0.134233265818 -0.990949761767 0.134233265818 -0.990949761767 0 0
15857142857.1 0 0 0.0762218227988 -0.99709088539 0.0762218227988 -0.99709088539 0 0
16476190476.2 0 0 0.0179509937981 -0.999838867928 0.0179509937981 -0.999838867928 0 0
17095238095.2 0 0 -0.0403809231691 -0.999184357885 -0.0403809231691 -0.999184357885 0 0
17714285714.3 0 0 -0.0985754222023 -0.995129582585 -0.0985754222023 -0.995129582585 0 0
18333333333.3 0 0 -0.15643446504 -0.987688340594 -0.15643446504 -0.987688340594 0 0
18952380952.4 0 0 -0.213761154992 -0.976885954764 -0.213761154992 -0.976885954764 0 0
19571428571.4 0 0 -0.270360406986 -0.962759186054 -0.270360406986 -0.962759186054 0 0
20190476190.5 0 0 -0.326039611452 -0.945356108439 -0.326039611452 -0.945356108439 0 0
20809523809.5 0 0 -0.380609289778 -0.924735945301 -0.380609289778 -0.924735945301 0 0
21428571428.6 0 0 -0.433883739117 -0.900968867902 -0.433883739117 -0.900968867902 0 0
22047619047.6 0 0 -0.485681664337 -0.874135756576 -0.485681664337 -0.874135756576 0 0
22666666666.7 0 0 -0.535826794978 -0.844327925501 -0.535826794978 -0.844327925501 0 0
23285714285.7 0 0 -0.584148485111 -0.811646811945 -0.584148485111 -0.811646811945 0 0
23904761904.8 0 0 -0.630482294044 -0.776203631076 -0.630482294044 -0.776203631076 0 0
24523809523.8 0 0 -0.674670545931 -0.738118997487 -0.674670545931 -0.738118997487 0 0
25142857142.9 0 0 -0.716562866343 -0.697522514745 -0.716562866343 -0.697522514745 0 0
25761904761.9 0 0 -0.756016693998 -0.654552334343 -0.756016693998 -0.654552334343 0 0
26380952381 0 0 -0.792897765908 -0.609354685562 -0.792897765908 -0.609354685562 0 0
27000000000 0 0 -0.827080574274 -0.562083377852 -0.827080574274 -0.562083377852 0 0
27619047619 0 0 -0.858448793601 -0.512899277405 -0.858448793601 -0.512899277405 0 0
28238095238.1 0 0 -0.886895676556 -0.46196975973 -0.886895676556 -0.46196975973 0 0
28857142857.1 0 0 -0.912324417231 -0.409468140058 -0.912324417231 -0.409468140058 0 0
29476190476.2 0 0 -0.934648480581 -0.355573083551 -0.934648480581 -0.355573083551 0 0
30095238095.2 0 0 -0.953791896906 -0.300467997289 -0.953791896906 -0.300467997289 0 0
30714285714.3 0 0 -0.969689520376 -0.244340406138 -0.969689520376 -0.244340406138 0 0
31333333333.3 0 0 -0.982287250728 -0.187381314586 -0.982287250728 -0.187381314586 0 0
31952380952.4 0 0 -0.99154221737 -0.129784556752 -0.99154221737 -0.129784556752 0 0
32571428571.4 0 0 -0.997422925272 -0.0717461367613 -0.997422925272 -0.0717461367613 0 0
33190476190.5 0 0 -0.999909362144 -0.0134635617312 -0.999909362144 -0.0134635617312 0 0
33809523809.5 0 0 -0.99899306654 0.0448648303505 -0.99899306654 0.0448648303505 0 0
34428571428.6 0 0 -0.994677156652 0.103040545579 -0.994677156652 0.103040545579 0 0
35047619047.6 0 0 -0.986976319697 0.160865609614 -0.986976319697 0.160865609614 0 0
35666666666.7 0 0 -0.975916761938 0.218143241396 -0.975916761938 0.218143241396 0 0
36285714285.7 0 0 -0.961536119503 0.274678522802 -0.961536119503 0.274678522802 0 0
36904761904.8 0 0 -0.943883330307 0.330279061955 -0.943883330307 0.330279061955 0 0
37523809523.8 0 0 -0.923018467514 0.384755647945 -0.923018467514 0.384755647945 0 0
38142857142.9 0 0 -0.899012535106 0.43792289472 -0.899012535106 0.43792289472 0 0
38761904761.9 0 0 -0.871947226253 0.489599871965 -0.871947226253 0.489599871965 0 0
39380952381 0 0 -0.841914645308 0.53961072081 -0.841914645308 0.53961072081 0 0
40000000000 0 0 -0.809016994374 0.587785252292 -0.809016994374 0.587785252292 0 0
