! passive_4port
! Four-port with two independent thru paths. Exercises N>2 handling.
# HZ S RI R 50
1000000000 0 0 0.897443010235 -0.0677941249751 0 0 0 0 0.897443010235 -0.0677941249751 0 0 0 0 0 0 0 0 0 0 0 0 0.897443010235 -0.0677941249751 0 0 0 0 0.897443010235 -0.0677941249751 0 0
1619047619.05 0 0 0.893302471001 -0.109593317785 0 0 0 0 0.893302471001 -0.109593317785 0 0 0 0 0 0 0 0 0 0 0 0 0.893302471001 -0.109593317785 0 0 0 0 0.893302471001 -0.109593317785 0 0
2238095238.1 0 0 0.887216168355 -0.151153797869 0 0 0 0 0.887216168355 -0.151153797869 0 0 0 0 0 0 0 0 0 0 0 0 0.887216168355 -0.151153797869 0 0 0 0 0.887216168355 -0.151153797869 0 0
2857142857.14 0 0 0.879197359288 -0.192385039493 0 0 0 0 0.879197359288 -0.192385039493 0 0 0 0 0 0 0 0 0 0 0 0 0.879197359288 -0.192385039493 0 0 0 0 0.879197359288 -0.192385039493 0 0
3476190476.19 0 0 0.86926351012 -0.23319723406 0 0 0 0 0.86926351012 -0.23319723406 0 0 0 0 0 0 0 0 0 0 0 0 0.86926351012 -0.23319723406 0 0 0 0 0.86926351012 -0.23319723406 0 0
4095238095.24 0 0 0.857436258449 -0.27350148573 0 0 0 0 0.857436258449 -0.27350148573 0 0 0 0 0 0 0 0 0 0 0 0 0.857436258449 -0.27350148573 0 0 0 0 0.857436258449 -0.27350148573 0 0
4714285714.29 0 0 0.843741366024 -0.313210005044 0 0 0 0 0.843741366024 -0.313210005044 0 0 0 0 0 0 0 0 0 0 0 0 0.843741366024 -0.313210005044 0 0 0 0 0.843741366024 -0.313210005044 0 0
5333333333.33 0 0 0.828208662629 -0.352236300153 0 0 0 0 0.828208662629 -0.352236300153 0 0 0 0 0 0 0 0 0 0 0 0 0.828208662629 -0.352236300153 0 0 0 0 0.828208662629 -0.352236300153 0 0
5952380952.38 0 0 0.810871981112 -0.390495365206 0 0 0 0 0.810871981112 -0.390495365206 0 0 0 0 0 0 0 0 0 0 0 0 0.810871981112 -0.390495365206 0 0 0 0 0.810871981112 -0.390495365206 0 0
6571428571.43 0 0 0.791769083688 -0.427903865506 0 0 0 0 0.791769083688 -0.427903865506 0 0 0 0 0 0 0 0 0 0 0 0 0.791769083688 -0.427903865506 0 0 0 0 0.791769083688 -0.427903865506 0 0
7190476190.48 0 0 0.77094157969 -0.464380319033 0 0 0 0 0.77094157969 -0.464380319033 0 0 0 0 0 0 0 0 0 0 0 0 0.77094157969 -0.464380319033 0 0 0 0 0.77094157969 -0.464380319033 0 0
7809523809.52 0 0 0.748434834932 -0.49984527392 0 0 0 0 0.748434834932 -0.49984527392 0 0 0 0 0 0 0 0 0 0 0 0 0.748434834932 -0.49984527392 0 0 0 0 0.748434834932 -0.49984527392 0 0
8428571428.57 0 0 0.724297872901 -0.534221481514 0 0 0 0 0.724297872901 -0.534221481514 0 0 0 0 0 0 0 0 0 0 0 0 0.724297872901 -0.534221481514 0 0 0 0 0.724297872901 -0.534221481514 0 0
9047619047.62 0 0 0.698583267969 -0.56743406464 0 0 0 0 0.698583267969 -0.56743406464 0 0 0 0 0 0 0 0 0 0 0 0 0.698583267969 -0.56743406464 0 0 0 0 0.698583267969 -0.56743406464 0 0
9666666666.67 0 0 0.671347030882 -0.599410680691 0 0 0 0 0.671347030882 -0.599410680691 0 0 0 0 0 0 0 0 0 0 0 0 0.671347030882 -0.599410680691 0 0 0 0 0.671347030882 -0.599410680691 0 0
10285714285.7 0 0 0.642648486757 -0.630081679204 0 0 0 0 0.642648486757 -0.630081679204 0 0 0 0 0 0 0 0 0 0 0 0 0.642648486757 -0.630081679204 0 0 0 0 0.642648486757 -0.630081679204 0 0
10904761904.8 0 0 0.612550145863 -0.659380253574 0 0 0 0 0.612550145863 -0.659380253574 0 0 0 0 0 0 0 0 0 0 0 0 0.612550145863 -0.659380253574 0 0 0 0 0.612550145863 -0.659380253574 0 0
11523809523.8 0 0 0.58111756746 -0.687242586565 0 0 0 0 0.58111756746 -0.687242586565 0 0 0 0 0 0 0 0 0 0 0 0 0.58111756746 -0.687242586565 0 0 0 0 0.58111756746 -0.687242586565 0 0
12142857142.9 0 0 0.548419217007 -0.713607989318 0 0 0 0 0.548419217007 -0.713607989318 0 0 0 0 0 0 0 0 0 0 0 0 0.548419217007 -0.713607989318 0 0 0 0 0.548419217007 -0.713607989318 0 0
12761904761.9 0 0 0.514526317022 -0.738419033539 0 0 0 0 0.514526317022 -0.738419033539 0 0 0 0 0 0 0 0 0 0 0 0 0.514526317022 -0.738419033539 0 0 0 0 0.514526317022 -0.738419033539 0 0
13380952381 0 0 0.479512691958 -0.76162167659 0 0 0 0 0.479512691958 -0.76162167659 0 0 0 0 0 0 0 0 0 0 0 0 0.479512691958 -0.76162167659 0 0 0 0 0.479512691958 -0.76162167659 0 0
14000000000 0 0 0.443454607393 -0.783165379203 0 0 0 0 0.443454607393 -0.783165379203 0 0 0 0 0 0 0 0 0 0 0 0 0.443454607393 -0.783165379203 0 0 0 0 0.443454607393 -0.783165379203 0 0
14619047619 0 0 0.406430603918 -0.80300321556 0 0 0 0 0.406430603918 -0.80300321556 0 0 0 0 0 0 0 0 0 0 0 0 0.406430603918 -0.80300321556 0 0 0 0 0.406430603918 -0.80300321556 0 0
15238095238.1 0 0 0.368521326053 -0.821091975508 0 0 0 0 0.368521326053 -0.821091975508 0 0 0 0 0 0 0 0 0 0 0 0 0.368521326053 -0.821091975508 0 0 0 0 0.368521326053 -0.821091975508 0 0
15857142857.1 0 0 0.329809346599 -0.837392258679 0 0 0 0 0.329809346599 -0.837392258679 0 0 0 0 0 0 0 0 0 0 0 0 0.329809346599 -0.837392258679 0 0 0 0 0.329809346599 -0.837392258679 0 0
16476190476.2 0 0 0.290378986775 -0.851868560307 0 0 0 0 0.290378986775 -0.851868560307 0 0 0 0 0 0 0 0 0 0 0 0 0.290378986775 -0.851868560307 0 0 0 0 0.290378986775 -0.851868560307 0 0
17095238095.2 0 0 0.250316132552 -0.864489348566 0 0 0 0 0.250316132552 -0.864489348566 0 0 0 0 0 0 0 0 0 0 0 0 0.250316132552 -0.864489348566 0 0 0 0 0.250316132552 -0.864489348566 0 0
17714285714.3 0 0 0.209708047584 -0.875227133251 0 0 0 0 0.209708047584 -0.875227133251 0 0 0 0 0 0 0 0 0 0 0 0 0.209708047584 -0.875227133251 0 0 0 0 0.209708047584 -0.875227133251 0 0
18333333333.3 0 0 0.168643183127 -0.884058525656 0 0 0 0 0.168643183127 -0.884058525656 0 0 0 0 0 0 0 0 0 0 0 0 0.168643183127 -0.884058525656 0 0 0 0 0.168643183127 -0.884058525656 0 0
18952380952.4 0 0 0.12721098538 -0.890964289519 0 0 0 0 0.12721098538 -0.890964289519 0 0 0 0 0 0 0 0 0 0 0 0 0.12721098538 -0.890964289519 0 0 0 0 0.12721098538 -0.890964289519 0 0
19571428571.4 0 0 0.0855017006558 -0.895929382923 0 0 0 0 0.0855017006558 -0.895929382923 0 0 0 0 0 0 0 0 0 0 0 0 0.0855017006558 -0.895929382923 0 0 0 0 0.0855017006558 -0.895929382923 0 0
20190476190.5 0 0 0.0436061788102 -0.898942991056 0 0 0 0 0.0436061788102 -0.898942991056 0 0 0 0 0 0 0 0 0 0 0 0 0.0436061788102 -0.898942991056 0 0 0 0 0.0436061788102 -0.898942991056 0 0
20809523809.5 0 0 0.00161567535403 -0.899998549773 0 0 0 0 0.00161567535403 -0.899998549773 0 0 0 0 0 0 0 0 0 0 0 0 0.00161567535403 -0.899998549773 0 0 0 0 0.00161567535403 -0.899998549773 0 0
21428571428.6 0 0 -0.0403783473155 -0.899093759887 0 0 0 0 -0.0403783473155 -0.899093759887 0 0 0 0 0 0 0 0 0 0 0 0 -0.0403783473155 -0.899093759887 0 0 0 0 -0.0403783473155 -0.899093759887 0 0
22047619047.6 0 0 -0.0822844191358 -0.896230592185 0 0 0 0 -0.0822844191358 -0.896230592185 0 0 0 0 0 0 0 0 0 0 0 0 -0.0822844191358 -0.896230592185 0 0 0 0 -0.0822844191358 -0.896230592185 0 0
22666666666.7 0 0 -0.124011261616 -0.891415283127 0 0 0 0 -0.124011261616 -0.891415283127 0 0 0 0 0 0 0 0 0 0 0 0 -0.124011261616 -0.891415283127 0 0 0 0 -0.124011261616 -0.891415283127 0 0
23285714285.7 0 0 -0.165467986658 -0.88465832127 0 0 0 0 -0.165467986658 -0.88465832127 0 0 0 0 0 0 0 0 0 0 0 0 -0.165467986658 -0.88465832127 0 0 0 0 -0.165467986658 -0.88465832127 0 0
23904761904.8 0 0 -0.206564294522 -0.875974424415 0 0 0 0 -0.206564294522 -0.875974424415 0 0 0 0 0 0 0 0 0 0 0 0 -0.206564294522 -0.875974424415 0 0 0 0 -0.206564294522 -0.875974424415 0 0
24523809523.8 0 0 -0.247210670522 -0.865382507554 0 0 0 0 -0.247210670522 -0.865382507554 0 0 0 0 0 0 0 0 0 0 0 0 -0.247210670522 -0.865382507554 0 0 0 0 -0.247210670522 -0.865382507554 0 0
25142857142.9 0 0 -0.287318579996 -0.852905641668 0 0 0 0 -0.287318579996 -0.852905641668 0 0 0 0 0 0 0 0 0 0 0 0 -0.287318579996 -0.852905641668 0 0 0 0 -0.287318579996 -0.852905641668 0 0
25761904761.9 0 0 -0.326800661154 -0.838571003475 0 0 0 0 -0.326800661154 -0.838571003475 0 0 0 0 0 0 0 0 0 0 0 0 -0.326800661154 -0.838571003475 0 0 0 0 -0.326800661154 -0.838571003475 0 0
26380952381 0 0 -0.365570915366 -0.822409816234 0 0 0 0 -0.365570915366 -0.822409816234 0 0 0 0 0 0 0 0 0 0 0 0 -0.365570915366 -0.822409816234 0 0 0 0 -0.365570915366 -0.822409816234 0 0
27000000000 0 0 -0.403544894481 -0.804457281736 0 0 0 0 -0.403544894481 -0.804457281736 0 0 0 0 0 0 0 0 0 0 0 0 -0.403544894481 -0.804457281736 0 0 0 0 -0.403544894481 -0.804457281736 0 0
27619047619 0 0 -0.440639884769 -0.784752503628 0 0 0 0 -0.440639884769 -0.784752503628 0 0 0 0 0 0 0 0 0 0 0 0 -0.440639884769 -0.784752503628 0 0 0 0 -0.440639884769 -0.784752503628 0 0
28238095238.1 0 0 -0.476775087085 -0.763338402241 0 0 0 0 -0.476775087085 -0.763338402241 0 0 0 0 0 0 0 0 0 0 0 0 -0.476775087085 -0.763338402241 0 0 0 0 -0.476775087085 -0.763338402241 0 0
28857142857.1 0 0 -0.511871792866 -0.740261621096 0 0 0 0 -0.511871792866 -0.740261621096 0 0 0 0 0 0 0 0 0 0 0 0 -0.511871792866 -0.740261621096 0 0 0 0 -0.511871792866 -0.740261621096 0 0
29476190476.2 0 0 -0.54585355557 -0.715572425316 0 0 0 0 -0.54585355557 -0.715572425316 0 0 0 0 0 0 0 0 0 0 0 0 -0.54585355557 -0.715572425316 0 0 0 0 -0.54585355557 -0.715572425316 0 0
30095238095.2 0 0 -0.578646357185 -0.689324592131 0 0 0 0 -0.578646357185 -0.689324592131 0 0 0 0 0 0 0 0 0 0 0 0 -0.578646357185 -0.689324592131 0 0 0 0 -0.578646357185 -0.689324592131 0 0
30714285714.3 0 0 -0.610178769462 -0.661575293748 0 0 0 0 -0.610178769462 -0.661575293748 0 0 0 0 0 0 0 0 0 0 0 0 -0.610178769462 -0.661575293748 0 0 0 0 -0.610178769462 -0.661575293748 0 0
31333333333.3 0 0 -0.640382109488 -0.632384972819 0 0 0 0 -0.640382109488 -0.632384972819 0 0 0 0 0 0 0 0 0 0 0 0 -0.640382109488 -0.632384972819 0 0 0 0 -0.640382109488 -0.632384972819 0 0
31952380952.4 0 0 -0.669190589297 -0.601817210784 0 0 0 0 -0.669190589297 -0.601817210784 0 0 0 0 0 0 0 0 0 0 0 0 -0.669190589297 -0.601817210784 0 0 0 0 -0.669190589297 -0.601817210784 0 0
32571428571.4 0 0 -0.696541459161 -0.569938589384 0 0 0 0 -0.696541459161 -0.569938589384 0 0 0 0 0 0 0 0 0 0 0 0 -0.696541459161 -0.569938589384 0 0 0 0 -0.696541459161 -0.569938589384 0 0
33190476190.5 0 0 -0.722375144275 -0.536818545632 0 0 0 0 -0.722375144275 -0.536818545632 0 0 0 0 0 0 0 0 0 0 0 0 -0.722375144275 -0.536818545632 0 0 0 0 -0.722375144275 -0.536818545632 0 0
33809523809.5 0 0 -0.746635374515 -0.502529220567 0 0 0 0 -0.746635374515 -0.502529220567 0 0 0 0 0 0 0 0 0 0 0 0 -0.746635374515 -0.502529220567 0 0 0 0 -0.746635374515 -0.502529220567 0 0
34428571428.6 0 0 -0.769269307009 -0.467145302121 0 0 0 0 -0.769269307009 -0.467145302121 0 0 0 0 0 0 0 0 0 0 0 0 -0.769269307009 -0.467145302121 0 0 0 0 -0.769269307009 -0.467145302121 0 0
35047619047.6 0 0 -0.790227641236 -0.430743862436 0 0 0 0 -0.790227641236 -0.430743862436 0 0 0 0 0 0 0 0 0 0 0 0 -0.790227641236 -0.430743862436 0 0 0 0 -0.790227641236 -0.430743862436 0 0
35666666666.7 0 0 -0.80946472641 -0.393404189986 0 0 0 0 -0.80946472641 -0.393404189986 0 0 0 0 0 0 0 0 0 0 0 0 -0.80946472641 -0.393404189986 0 0 0 0 -0.80946472641 -0.393404189986 0 0
36285714285.7 0 0 -0.826938660915 -0.355207616872 0 0 0 0 -0.826938660915 -0.355207616872 0 0 0 0 0 0 0 0 0 0 0 0 -0.826938660915 -0.355207616872 0 0 0 0 -0.826938660915 -0.355207616872 0 0
36904761904.8 0 0 -0.842611383576 -0.316237341673 0 0 0 0 -0.842611383576 -0.316237341673 0 0 0 0 0 0 0 0 0 0 0 0 -0.842611383576 -0.316237341673 0 0 0 0 -0.842611383576 -0.316237341673 0 0
37523809523.8 0 0 -0.856448756559 -0.276578248219 0 0 0 0 -0.856448756559 -0.276578248219 0 0 0 0 0 0 0 0 0 0 0 0 -0.856448756559 -0.276578248219 0 0 0 0 -0.856448756559 -0.276578248219 0 0
38142857142.9 0 0 -0.868420639734 -0.236316720703 0 0 0 0 -0.868420639734 -0.236316720703 0 0 0 0 0 0 0 0 0 0 0 0 -0.868420639734 -0.236316720703 0 0 0 0 -0.868420639734 -0.236316720703 0 0
38761904761.9 0 0 -0.87850095632 -0.19554045552 0 0 0 0 -0.87850095632 -0.19554045552 0 0 0 0 0 0 0 0 0 0 0 0 -0.87850095632 -0.19554045552 0 0 0 0 -0.87850095632 -0.19554045552 0 0
39380952381 0 0 -0.886667749687 -0.154338270253 0 0 0 0 -0.886667749687 -0.154338270253 0 0 0 0 0 0 0 0 0 0 0 0 -0.886667749687 -0.154338270253 0 0 0 0 -0.886667749687 -0.154338270253 0 0
40000000000 0 0 -0.892903231183 -0.112799910208 0 0 0 0 -0.892903231183 -0.112799910208 0 0 0 0 0 0 0 0 0 0 0 0 -0.892903231183 -0.112799910208 0 0 0 0 -0.892903231183 -0.112799910208 0 0
