! passive_resonator
! Shunt resonator, Q=30 at 20 GHz. Sharp phase slope near resonance -- the case where a group-delay check without phase unwrapping fails.
# HZ S RI R 50
1000000000 0.708934277816 -0.00118451842576 7.63517671937e-05 0.00118205677766 7.63517671937e-05 0.00118205677766 0.708934277816 -0.00118451842576
1619047619.05 0.708931026601 -0.00192560754526 0.0002007533824 0.00191512136809 0.0002007533824 0.00191512136809 0.708931026601 -0.00192560754526
2238095238.1 0.708926141135 -0.00267794203413 0.000385358084376 0.00265008962394 0.000385358084376 0.00265008962394 0.708926141135 -0.00267794203413
2857142857.14 0.708919504909 -0.0034461364822 0.000631814269284 0.00338776445673 0.000631814269284 0.00338776445673 0.708919504909 -0.0034461364822
3476190476.19 0.708910955786 -0.00423512457876 0.00094237969524 0.00412902420156 0.00094237969524 0.00412902420156 0.708910955786 -0.00423512457876
4095238095.24 0.70890027837 -0.00505027061583 0.00131999396885 0.00487484806679 0.00131999396885 0.00487484806679 0.70890027837 -0.00505027061583
4714285714.29 0.708887193429 -0.00589750028567 0.00176837645697 0.00562634531078 0.00176837645697 0.00562634531078 0.708887193429 -0.00589750028567
5333333333.33 0.708871343489 -0.00678345783243 0.00229215577979 0.00638478940956 0.00229215577979 0.00638478940956 0.708871343489 -0.00678345783243
5952380952.38 0.708852273301 -0.00771569882306 0.00289703949615 0.00715165881045 0.00289703949615 0.00715165881045 0.708852273301 -0.00771569882306
6571428571.43 0.708829403313 -0.00870293097944 0.00359003600748 0.00792868632246 0.00359003600748 0.00792868632246 0.708829403313 -0.00870293097944
7190476190.48 0.708801993413 -0.00975532011325 0.0043797455639 0.00871791982115 0.0043797455639 0.00871791982115 0.708801993413 -0.00975532011325
7809523809.52 0.7087690929 -0.0108848849348 0.00527674429949 0.0095217978064 0.00527674429949 0.0095217978064 0.7087690929 -0.0108848849348
8428571428.57 0.708729470602 -0.0121060144905 0.00629409563606 0.0103432445377 0.00629409563606 0.0103432445377 0.708729470602 -0.0121060144905
9047619047.62 0.708681515851 -0.0134361570361 0.0074480390906 0.0111857911046 0.0074480390906 0.0111857911046 0.708681515851 -0.0134361570361
9666666666.67 0.708623095804 -0.0148967522858 0.00875893068049 0.0120537310369 0.00875893068049 0.0120537310369 0.708623095804 -0.0148967522858
10285714285.7 0.70855134595 -0.0165145152774 0.0102525471462 0.0129523221219 0.0102525471462 0.0129523221219 0.70855134595 -0.0165145152774
10904761904.8 0.708462355894 -0.0183232384336 0.01196192756 0.013888050186 0.01196192756 0.013888050186 0.708462355894 -0.0183232384336
11523809523.8 0.70835068653 -0.020366374673 0.0139300276029 0.0148689757896 0.0139300276029 0.0148689757896 0.70835068653 -0.020366374673
12142857142.9 0.708208607522 -0.022700828093 0.0162136356734 0.0159051906012 0.0162136356734 0.0159051906012 0.708208607522 -0.022700828093
12761904761.9 0.708024854682 -0.0254026665274 0.0188893076712 0.0170094143496 0.0188893076712 0.0170094143496 0.708024854682 -0.0254026665274
13380952381 0.70778253034 -0.0285759960012 0.0220626435904 0.0181977578393 0.0220626435904 0.0181977578393 0.70778253034 -0.0285759960012
14000000000 0.707455402814 -0.0323672406516 0.0258833195131 0.0194906379421 0.0258833195131 0.0194906379421 0.707455402814 -0.0323672406516
14619047619 0.70700105109 -0.0369890873828 0.0305705018399 0.0209136803177 0.0305705018399 0.0209136803177 0.70700105109 -0.0369890873828
15238095238.1 0.706347382872 -0.0427626523685 0.0364580499309 0.0224979399474 0.0364580499309 0.0224979399474 0.706347382872 -0.0427626523685
15857142857.1 0.705364109008 -0.0501962643861 0.0440800285044 0.0242770732661 0.0440800285044 0.0242770732661 0.705364109008 -0.0501962643861
16476190476.2 0.703796596228 -0.0601437921129 0.0543453460892 0.0262730889052 0.0543453460892 0.0262730889052 0.703796596228 -0.0601437921129
17095238095.2 0.701093186269 -0.0741533776844 0.0689309385809 0.0284387567636 0.0689309385809 0.0284387567636 0.701093186269 -0.0741533776844
17714285714.3 0.695876317324 -0.0953315409465 0.0912879063277 0.030416819046 0.0912879063277 0.030416819046 0.695876317324 -0.0953315409465
18333333333.3 0.683907068226 -0.130834395661 0.129703456064 0.0303498412125 0.129703456064 0.0303498412125 0.683907068226 -0.130834395661
18952380952.4 0.646918009692 -0.20030157535 0.209017108907 0.0166982713572 0.209017108907 0.0166982713572 0.646918009692 -0.20030157535
19571428571.4 0.445338049993 -0.342622695502 0.41106145631 -0.133801365188 0.41106145631 -0.133801365188 0.445338049993 -0.342622695502
20190476190.5 0.173266384296 0.30465321599 -0.131426076555 -0.602065595177 -0.131426076555 -0.602065595177 0.173266384296 0.30465321599
20809523809.5 0.602660920356 0.253077047892 -0.216695773122 -0.168479616724 -0.216695773122 -0.168479616724 0.602660920356 0.253077047892
21428571428.6 0.669904934949 0.161701191195 -0.148961718501 -0.0740346253658 -0.148961718501 -0.0740346253658 0.669904934949 0.161701191195
22047619047.6 0.688859642596 0.117600890287 -0.11188030969 -0.0414226525511 -0.11188030969 -0.0414226525511 0.688859642596 0.117600890287
22666666666.7 0.696647971814 0.0925235587565 -0.089735886915 -0.0256725821924 -0.089735886915 -0.0256725821924 0.696647971814 0.0925235587565
23285714285.7 0.700589619696 0.0764693888242 -0.0751289319632 -0.016519000056 -0.0751289319632 -0.016519000056 0.700589619696 0.0764693888242
23904761904.8 0.702862681333 0.0653367404424 -0.0647644681075 -0.0105518549696 -0.0647644681075 -0.0105518549696 0.702862681333 0.0653367404424
24523809523.8 0.70429585895 0.0571682875658 -0.0570038812161 -0.00634853709154 -0.0570038812161 -0.00634853709154 0.70429585895 0.0571682875658
25142857142.9 0.705259973695 0.0509189104309 -0.0509498570205 -0.00321909423719 -0.0509498570205 -0.00321909423719 0.705259973695 0.0509189104309
25761904761.9 0.705941223843 0.0459817066364 -0.046072351286 -0.000791211446514 -0.046072351286 -0.000791211446514 0.705941223843 0.0459817066364
26380952381 0.706441522604 0.0419807567602 -0.0420390177507 0.00115265963259 -0.0420390177507 0.00115265963259 0.706441522604 0.0419807567602
27000000000 0.706820516647 0.0386710313059 -0.0386312712486 0.00274770832855 -0.0386312712486 0.00274770832855 0.706820516647 0.0386710313059
27619047619 0.707115037986 0.0358860881778 -0.0356996367288 0.00408216862581 -0.0356996367288 0.00408216862581 0.707115037986 0.0358860881778
28238095238.1 0.707348850976 0.03350895104 -0.0331385457983 0.00521597928821 -0.0331385457983 0.00521597928821 0.707348850976 0.03350895104
28857142857.1 0.707537860251 0.0314550252907 -0.0308713902197 0.00619123536128 -0.0308713902197 0.00619123536128 0.707537860251 0.0314550252907
29476190476.2 0.707693045374 0.029661628311 -0.0288412809567 0.00703834368904 -0.0288412809567 0.00703834368904 0.707693045374 0.029661628311
30095238095.2 0.707822190244 0.0280813308849 -0.027005127808 0.0077798046886 -0.027005127808 0.0077798046886 0.707822190244 0.0280813308849
30714285714.3 0.707930942005 0.0266775854202 -0.0253297281007 0.00843262096609 -0.0253297281007 0.00843262096609 0.707930942005 0.0266775854202
31333333333.3 0.708023481232 0.0254217751092 -0.0237891125433 0.00900987977924 -0.0237891125433 0.00900987977924 0.708023481232 0.0254217751092
31952380952.4 0.708102958507 0.0242911733167 -0.0223627012545 0.00952182125534 -0.0223627012545 0.00952182125534 0.708102958507 0.0242911733167
32571428571.4 0.708171786174 0.0232675018679 -0.0210339956524 0.00997657685035 -0.0210339956524 0.00997657685035 0.708171786174 0.0232675018679
33190476190.5 0.708231837754 0.0223358928564 -0.0197896330466 0.0103806907282 -0.0197896330466 0.0103806907282 0.708231837754 0.0223358928564
33809523809.5 0.708284587038 0.0214841281512 -0.0186186918488 0.0107394948646 -0.0186186918488 0.0107394948646 0.708284587038 0.0214841281512
34428571428.6 0.708331206879 0.0207020736815 -0.0175121732027 0.0110573835075 -0.0175121732027 0.0110573835075 0.708331206879 0.0207020736815
35047619047.6 0.70837264053 0.0199812527047 -0.0164626089029 0.0113380170772 -0.0164626089029 0.0113380170772 0.70837264053 0.0199812527047
35666666666.7 0.708409653924 0.0193145198038 -0.0154637611092 0.0115844757485 -0.0154637611092 0.0115844757485 0.708409653924 0.0193145198038
36285714285.7 0.708442874525 0.0186958089308 -0.0145103897199 0.011799376593 -0.0145103897199 0.011799376593 0.708442874525 0.0186958089308
36904761904.8 0.708472820549 0.0181199365972 -0.0135980702535 0.0119849639539 -0.0135980702535 0.0119849639539 0.708472820549 0.0181199365972
37523809523.8 0.70849992321 0.0175824466259 -0.0127230498827 0.0121431799038 -0.0127230498827 0.0121431799038 0.70849992321 0.0175824466259
38142857142.9 0.708524543826 0.0170794865756 -0.0118821326005 0.0122757197042 -0.0118821326005 0.0122757197042 0.708524543826 0.0170794865756
38761904761.9 0.708546987106 0.0166077085477 -0.0110725868552 0.012384075846 -0.0110725868552 0.012384075846 0.708546987106 0.0166077085477
39380952381 0.70856751157 0.0161641889409 -0.0102920706779 0.0124695733062 -0.0102920706779 0.0124695733062 0.70856751157 0.0161641889409
40000000000 0.708586337782 0.0157463630618 -0.00953857054758 0.0125333979836 -0.00953857054758 0.0125333979836 0.708586337782 0.0157463630618
