! passive_attenuator
! Ideal 10 dB matched attenuator.
# HZ S RI R 50
1000000000 0 0 0.316227766017 0 0.316227766017 0 0 0
1619047619.05 0 0 0.316227766017 0 0.316227766017 0 0 0
2238095238.1 0 0 0.316227766017 0 0.316227766017 0 0 0
2857142857.14 0 0 0.316227766017 0 0.316227766017 0 0 0
3476190476.19 0 0 0.316227766017 0 0.316227766017 0 0 0
4095238095.24 0 0 0.316227766017 0 0.316227766017 0 0 0
4714285714.29 0 0 0.316227766017 0 0.316227766017 0 0 0
5333333333.33 0 0 0.316227766017 0 0.316227766017 0 0 0
5952380952.38 0 0 0.316227766017 0 0.316227766017 0 0 0
6571428571.43 0 0 0.316227766017 0 0.316227766017 0 0 0
7190476190.48 0 0 0.316227766017 0 0.316227766017 0 0 0
7809523809.52 0 0 0.316227766017 0 0.316227766017 0 0 0
8428571428.57 0 0 0.316227766017 0 0.316227766017 0 0 0
9047619047.62 0 0 0.316227766017 0 0.316227766017 0 0 0
9666666666.67 0 0 0.316227766017 0 0.316227766017 0 0 0
10285714285.7 0 0 0.316227766017 0 0.316227766017 0 0 0
10904761904.8 0 0 0.316227766017 0 0.316227766017 0 0 0
11523809523.8 0 0 0.316227766017 0 0.316227766017 0 0 0
12142857142.9 0 0 0.316227766017 0 0.316227766017 0 0 0
12761904761.9 0 0 0.316227766017 0 0.316227766017 0 0 0
13380952381 0 0 0.316227766017 0 0.316227766017 0 0 0
14000000000 0 0 0.316227766017 0 0.316227766017 0 0 0
14619047619 0 0 0.316227766017 0 0.316227766017 0 0 0
15238095238.1 0 0 0.316227766017 0 0.316227766017 0 0 0
15857142857.1 0 0 0.316227766017 0 0.316227766017 0 0 0
16476190476.2 0 0 0.316227766017 0 0.316227766017 0 0 0
17095238095.2 0 0 0.316227766017 0 0.316227766017 0 0 0
17714285714.3 0 0 0.316227766017 0 0.316227766017 0 0 0
18333333333.3 0 0 0.316227766017 0 0.316227766017 0 0 0
18952380952.4 0 0 0.316227766017 0 0.316227766017 0 0 0
19571428571.4 0 0 0.316227766017 0 0.316227766017 0 0 0
20190476190.5 0 0 0.316227766017 0 0.316227766017 0 0 0
20809523809.5 0 0 0.316227766017 0 0.316227766017 0 0 0
21428571428.6 0 0 0.316227766017 0 0.316227766017 0 0 0
22047619047.6 0 0 0.316227766017 0 0.316227766017 0 0 0
22666666666.7 0 0 0.316227766017 0 0.316227766017 0 0 0
23285714285.7 0 0 0.316227766017 0 0.316227766017 0 0 0
23904761904.8 0 0 0.316227766017 0 0.316227766017 0 0 0
24523809523.8 0 0 0.316227766017 0 0.316227766017 0 0 0
25142857142.9 0 0 0.316227766017 0 0.316227766017 0 0 0
25761904761.9 0 0 0.316227766017 0 0.316227766017 0 0 0
26380952381 0 0 0.316227766017 0 0.316227766017 0 0 0
27000000000 0 0 0.316227766017 0 0.316227766017 0 0 0
27619047619 0 0 0.316227766017 0 0.316227766017 0 0 0
28238095238.1 0 0 0.316227766017 0 0.316227766017 0 0 0
28857142857.1 0 0 0.316227766017 0 0.316227766017 0 0 0
29476190476.2 0 0 0.316227766017 0 0.316227766017 0 0 0
30095238095.2 0 0 0.316227766017 0 0.316227766017 0 0 0
30714285714.3 0 0 0.316227766017 0 0.316227766017 0 0 0
31333333333.3 0 0 0.316227766017 0 0.316227766017 0 0 0
31952380952.4 0 0 0.316227766017 0 0.316227766017 0 0 0
32571428571.4 0 0 0.316227766017 0 0.316227766017 0 0 0
33190476190.5 0 0 0.316227766017 0 0.316227766017 0 0 0
33809523809.5 0 0 0.316227766017 0 0.316227766017 0 0 0
34428571428.6 0 0 0.316227766017 0 0.316227766017 0 0 0
35047619047.6 0 0 0.316227766017 0 0.316227766017 0 0 0
35666666666.7 0 0 0.316227766017 0 0.316227766017 0 0 0
36285714285.7 0 0 0.316227766017 0 0.316227766017 0 0 0
36904761904.8 0 0 0.316227766017 0 0.316227766017 0 0 0
37523809523.8 0 0 0.316227766017 0 0.316227766017 0 0 0
38142857142.9 0 0 0.316227766017 0 0.316227766017 0 0 0
38761904761.9 0 0 0.316227766017 0 0.316227766017 0 0 0
39380952381 0 0 0.316227766017 0 0.316227766017 0 0 0
40000000000 0 0 0.316227766017 0 0.316227766017 0 0 0
